%%%mzn-stat: initTime=0.005060243
%%%mzn-stat: objective=388
%%%mzn-stat: nodes=2905
%%%mzn-stat: restarts=0
%%%mzn-stat: peakDepth=127
%%%mzn-stat: solveTime=0.098208312
%%%mzn-stat: variables=504
%%%mzn-stat: propagators=356
%%%mzn-stat: failures=686
%%%mzn-stat: propagations=128080
%%%mzn-stat: nogoods=686
%%%mzn-stat: AverageConflictSize=9.862973760932945
%%%mzn-stat: NumUnitNogoodsLearned=387
%%%mzn-stat: AverageLearnedNogoodLength=7.033527696793003
%%%mzn-stat: AverageBacktrackAmount=0
%%%mzn-stat: AverageLbd=3.8104956268221573
%%%mzn-stat-end
maxleg = 388;
succ = array1d(1..20,[3, 12, 19, 5, 11, 13, 2, 7, 6, 4, 1, 10, 14, 17, 9, 8, 16, 20, 18, 15]);
% time elapsed: 2.07 s
----------
==========
% time elapsed: 2.07 s
%%%mzn-stat: initTime=0.005060243
%%%mzn-stat: objective=388
%%%mzn-stat: nodes=2905
%%%mzn-stat: restarts=0
%%%mzn-stat: peakDepth=127
%%%mzn-stat: solveTime=0.098210846
%%%mzn-stat: variables=504
%%%mzn-stat: propagators=356
%%%mzn-stat: failures=686
%%%mzn-stat: propagations=128080
%%%mzn-stat: nogoods=686
%%%mzn-stat: AverageConflictSize=9.862973760932945
%%%mzn-stat: NumUnitNogoodsLearned=387
%%%mzn-stat: AverageLearnedNogoodLength=7.033527696793003
%%%mzn-stat: AverageBacktrackAmount=0
%%%mzn-stat: AverageLbd=3.8104956268221573
%%%mzn-stat-end
